p cnf 25 55
0 5 10 15 20 0
1 6 11 16 21 0
2 7 12 17 22 0
3 8 13 18 23 0
4 9 14 19 24 0
-1 -0 0
-2 -0 0
-2 -1 0
-3 -0 0
-3 -1 0
-3 -2 0
-4 -0 0
-4 -1 0
-4 -2 0
-4 -3 0
-6 -5 0
-7 -5 0
-7 -6 0
-8 -5 0
-8 -6 0
-8 -7 0
-9 -5 0
-9 -6 0
-9 -7 0
-9 -8 0
-11 -10 0
-12 -10 0
-12 -11 0
-13 -10 0
-13 -11 0
-13 -12 0
-14 -10 0
-14 -11 0
-14 -12 0
-14 -13 0
-16 -15 0
-17 -15 0
-17 -16 0
-18 -15 0
-18 -16 0
-18 -17 0
-19 -15 0
-19 -16 0
-19 -17 0
-19 -18 0
-21 -20 0
-22 -20 0
-22 -21 0
-23 -20 0
-23 -21 0
-23 -22 0
-24 -20 0
-24 -21 0
-24 -22 0
-24 -23 0
